% File represents an instance of a Composite Structure problem to be solved by a CP framework
% Created on 2025-03-25 14:05:13.587
T = 58;
n = 4;
m = 4;
edges = [(2, 1),
(3, 4),
(1, 3),
(2, 4)];
counts = [|13, 5, 11, 27,
|13, 5, 11, 29,
|13, 4, 10, 24,
|13, 2, 9, 24|];
